c FILE /home/rafael/Documents/HappySet/MIHS/inputs/happygen/output/graph_d_regular_k7_p0.2_v50_20241127_082644.txt
c SOURCE This is a d-regular graph formed for the happy graph colouring problem.
c DESCRIPTION It was generated using the problem generator of Rhyd Lewis
c
c GRAPH STATS
c Seed                             = -2075840843
c Number of Nodes                  = 50
c Number of colours k              = 7
c Number of pre-assignments        = 10
c Degree of all vertices           = 6
c Density                          = 0.122449
c 
c The degrees of nodes 1 to 50, respectively, are as follows 
c [6, 6, 6, 6, 6, 6, 6, 6, 6, 6, 6, 6, 6, 6, 6, 6, 6, 6, 6, 6, 6, 6, 6, 6, 6, 6, 
c  6, 6, 6, 6, 6, 6, 6, 6, 6, 6, 6, 6, 6, 6, 6, 6, 6, 6, 6, 6, 6, 6, 6, 6] 
c  
p edge 50 150 7
e 1 2
e 1 3
e 1 21
e 1 26
e 1 34
e 1 37
e 2 16
e 2 25
e 2 26
e 2 32
e 2 35
e 3 17
e 3 22
e 3 28
e 3 38
e 3 39
e 4 12
e 4 18
e 4 28
e 4 30
e 4 33
e 4 48
e 5 8
e 5 9
e 5 25
e 5 33
e 5 38
e 5 44
e 6 15
e 6 34
e 6 37
e 6 39
e 6 43
e 6 44
e 7 11
e 7 29
e 7 33
e 7 37
e 7 41
e 7 47
e 8 22
e 8 24
e 8 28
e 8 29
e 8 40
e 9 12
e 9 17
e 9 22
e 9 36
e 9 49
e 10 40
e 10 41
e 10 43
e 10 44
e 10 45
e 10 46
e 11 13
e 11 21
e 11 25
e 11 33
e 11 36
e 12 26
e 12 30
e 12 46
e 12 47
e 13 14
e 13 22
e 13 28
e 13 31
e 13 44
e 14 17
e 14 25
e 14 27
e 14 29
e 14 30
e 15 28
e 15 29
e 15 37
e 15 48
e 15 49
e 16 19
e 16 22
e 16 23
e 16 39
e 16 50
e 17 24
e 17 37
e 17 47
e 18 25
e 18 30
e 18 36
e 18 42
e 18 43
e 19 20
e 19 41
e 19 43
e 19 44
e 19 45
e 20 23
e 20 35
e 20 45
e 20 48
e 20 50
e 21 32
e 21 38
e 21 39
e 21 47
e 22 24
e 23 34
e 23 35
e 23 41
e 23 44
e 24 31
e 24 34
e 24 49
e 25 31
e 26 31
e 26 33
e 26 49
e 27 32
e 27 40
e 27 46
e 27 48
e 27 49
e 28 35
e 29 31
e 29 40
e 30 40
e 30 43
e 31 49
e 32 34
e 32 45
e 32 46
e 33 42
e 34 42
e 35 37
e 35 45
e 36 38
e 36 39
e 36 50
e 38 39
e 38 50
e 40 48
e 41 42
e 41 43
e 42 48
e 42 50
e 45 46
e 46 47
e 47 50
n 11 1
n 15 3
n 16 5
n 17 3
n 18 2
n 34 7
n 38 6
n 40 4
n 43 2
n 47 3
